c "327069.clq"
p edge 139 540
e 1 5
e 1 6
e 1 7
e 1 8
e 1 9
e 1 11
e 1 12
e 1 16
e 1 18
e 1 19
e 1 22
e 1 26
e 1 45
e 1 46
e 1 49
e 1 52
e 1 53
e 1 61
e 1 62
e 1 73
e 1 88
e 1 105
e 1 110
e 1 111
e 1 113
e 1 138
e 2 5
e 2 6
e 2 18
e 2 56
e 2 78
e 2 94
e 2 112
e 3 5
e 3 10
e 3 11
e 3 20
e 3 22
e 3 36
e 3 61
e 3 75
e 3 77
e 3 92
e 3 120
e 3 132
e 4 5
e 4 6
e 4 7
e 4 10
e 4 13
e 4 15
e 4 33
e 4 35
e 4 38
e 4 43
e 4 46
e 4 51
e 4 57
e 4 80
e 4 81
e 4 84
e 4 88
e 4 94
e 4 97
e 4 106
e 4 111
e 4 117
e 4 128
e 4 137
e 5 6
e 5 7
e 5 8
e 5 9
e 5 10
e 5 12
e 5 13
e 5 14
e 5 16
e 5 20
e 5 22
e 5 23
e 5 24
e 5 26
e 5 28
e 5 29
e 5 37
e 5 39
e 5 42
e 5 47
e 5 52
e 5 55
e 5 60
e 5 73
e 5 83
e 5 86
e 5 87
e 5 92
e 5 95
e 5 98
e 5 103
e 5 108
e 5 110
e 5 116
e 5 125
e 5 128
e 5 131
e 5 135
e 5 139
e 6 7
e 6 8
e 6 9
e 6 14
e 6 15
e 6 16
e 6 17
e 6 18
e 6 19
e 6 21
e 6 24
e 6 25
e 6 34
e 6 38
e 6 42
e 6 48
e 6 54
e 6 58
e 6 59
e 6 64
e 6 70
e 6 78
e 6 82
e 6 85
e 6 90
e 6 95
e 6 97
e 6 103
e 6 108
e 6 119
e 6 127
e 6 129
e 6 136
e 7 8
e 7 10
e 7 25
e 7 27
e 7 29
e 7 38
e 7 39
e 7 41
e 7 42
e 7 45
e 7 56
e 7 62
e 7 63
e 7 65
e 7 90
e 7 96
e 7 99
e 7 114
e 7 123
e 7 134
e 8 9
e 8 11
e 8 14
e 8 15
e 8 29
e 8 30
e 8 34
e 8 37
e 8 42
e 8 53
e 8 59
e 8 107
e 8 130
e 8 136
e 9 13
e 9 15
e 9 16
e 9 17
e 9 21
e 9 31
e 9 44
e 9 51
e 9 58
e 9 67
e 9 68
e 9 70
e 9 71
e 9 100
e 9 113
e 10 11
e 10 12
e 10 19
e 10 20
e 10 21
e 10 26
e 10 35
e 10 39
e 10 43
e 10 47
e 10 51
e 10 53
e 10 56
e 10 61
e 10 65
e 10 67
e 10 68
e 10 72
e 10 73
e 10 74
e 10 85
e 10 93
e 10 109
e 10 128
e 10 135
e 11 12
e 11 14
e 11 18
e 11 21
e 11 23
e 11 27
e 11 28
e 11 31
e 11 33
e 11 36
e 11 37
e 11 40
e 11 45
e 11 47
e 11 49
e 11 55
e 11 64
e 11 65
e 11 71
e 11 75
e 11 80
e 11 81
e 11 86
e 11 91
e 11 98
e 11 99
e 11 104
e 11 110
e 11 114
e 12 13
e 12 17
e 12 23
e 12 62
e 12 68
e 12 91
e 12 113
e 12 117
e 13 17
e 13 32
e 13 51
e 13 84
e 13 99
e 13 135
e 14 19
e 14 24
e 14 25
e 14 32
e 14 34
e 14 45
e 14 57
e 14 69
e 14 93
e 14 102
e 14 112
e 14 117
e 15 20
e 15 35
e 15 40
e 15 44
e 15 46
e 15 52
e 15 87
e 15 95
e 15 104
e 15 130
e 16 23
e 16 31
e 16 35
e 16 36
e 16 38
e 16 41
e 16 43
e 16 48
e 16 58
e 16 59
e 16 65
e 16 69
e 16 89
e 16 137
e 17 22
e 17 29
e 17 44
e 17 77
e 18 27
e 18 28
e 18 50
e 18 67
e 18 72
e 18 96
e 18 105
e 19 30
e 19 32
e 19 33
e 19 48
e 19 76
e 19 83
e 19 89
e 20 24
e 20 126
e 20 139
e 21 49
e 21 57
e 21 77
e 21 89
e 21 115
e 22 25
e 22 28
e 22 32
e 22 34
e 22 39
e 22 41
e 22 43
e 22 50
e 22 60
e 22 75
e 22 86
e 22 92
e 22 96
e 22 111
e 22 117
e 22 121
e 23 26
e 23 37
e 23 40
e 23 41
e 23 46
e 23 66
e 23 72
e 23 74
e 23 118
e 24 40
e 24 60
e 24 76
e 24 108
e 24 118
e 24 123
e 25 27
e 25 53
e 25 120
e 25 121
e 26 30
e 26 31
e 27 36
e 27 47
e 27 82
e 27 122
e 28 71
e 28 102
e 29 30
e 30 33
e 30 63
e 30 69
e 30 87
e 31 48
e 31 54
e 31 57
e 31 64
e 31 80
e 31 85
e 32 50
e 32 66
e 32 98
e 34 52
e 34 81
e 34 94
e 34 109
e 34 136
e 35 66
e 35 82
e 35 100
e 36 97
e 37 103
e 38 44
e 38 55
e 38 79
e 38 107
e 38 138
e 39 112
e 39 115
e 40 59
e 40 76
e 40 114
e 40 120
e 40 123
e 40 124
e 40 132
e 40 139
e 41 105
e 41 133
e 42 84
e 44 64
e 44 96
e 44 98
e 44 124
e 45 79
e 45 91
e 45 120
e 46 49
e 46 67
e 46 68
e 46 122
e 47 61
e 47 91
e 47 102
e 47 106
e 47 119
e 47 125
e 47 138
e 48 62
e 49 50
e 49 54
e 49 63
e 49 66
e 49 70
e 49 72
e 49 78
e 49 79
e 49 81
e 49 85
e 49 115
e 49 125
e 49 132
e 50 126
e 50 136
e 51 54
e 51 63
e 51 70
e 51 79
e 51 115
e 52 55
e 52 71
e 52 99
e 52 101
e 53 56
e 53 80
e 53 93
e 53 108
e 54 60
e 54 78
e 54 100
e 54 129
e 55 127
e 56 89
e 56 93
e 56 131
e 56 134
e 57 58
e 57 76
e 58 111
e 58 119
e 59 82
e 59 112
e 59 129
e 60 88
e 60 116
e 60 137
e 61 83
e 62 83
e 62 97
e 63 87
e 63 100
e 63 107
e 64 118
e 64 131
e 64 132
e 65 69
e 65 101
e 65 124
e 66 74
e 66 133
e 67 95
e 68 73
e 68 77
e 68 126
e 68 131
e 69 88
e 69 102
e 69 103
e 71 90
e 72 74
e 72 75
e 72 114
e 74 84
e 74 104
e 75 90
e 75 106
e 75 121
e 75 124
e 77 92
e 77 101
e 78 126
e 79 109
e 80 113
e 81 134
e 82 104
e 83 129
e 84 86
e 84 116
e 85 106
e 86 109
e 86 128
e 86 134
e 87 122
e 88 123
e 91 133
e 92 94
e 93 107
e 93 121
e 93 138
e 94 110
e 96 101
e 96 133
e 97 116
e 97 119
e 97 137
e 100 105
e 102 118
e 103 139
e 106 125
e 112 130
e 113 130
e 117 122
e 122 127
e 124 135
e 126 127
